12
1 5
2 9
3 1
4 4
5 2
6 8
7 9
8 10
9 7
10 1
11 1
41
0 1 77
1 0 77
0 2 100
2 0 100
0 3 27
3 0 27
0 4 63
4 0 63
0 5 94
5 0 94
0 6 87
6 0 87
0 7 46
7 0 46
0 8 100
8 0 100
0 9 76
9 0 76
0 10 51
10 0 51
0 11 40
11 0 40
1 4 22
1 7 49
1 9 90
1 10 49
2 5 34
2 8 71
2 9 69
3 4 91
3 7 9
3 9 47
3 11 43
4 6 20
4 8 74
5 8 77
5 9 77
5 10 97
5 11 16
8 10 18
10 11 76
